1 26 47 41 12 4 21 17 1 
1 35 25 59 24 48 15 1 
1 40 27 18 38 58 28 20 1 
1 7 29 45 50 31 54 22 5 1 
1 8 30 14 9 16 56 36 1 
1 51 44 57 13 52 10 33 1 
1 32 37 23 49 2 3 1 
1 43 46 6 55 11 1 
1 42 34 39 60 53 19 1 
